certificates/rado_a9_c150_N19.cnf
c Rad2 upper bound instance: x1 + 9*x2 - x3 = 150, interval [1,19]
p cnf 19 78
1 4 17 0
-1 -4 -17 0
1 13 18 0
-1 -13 -18 0
2 5 17 0
-2 -5 -17 0
2 14 18 0
-2 -14 -18 0
3 6 17 0
-3 -6 -17 0
3 15 18 0
-3 -15 -18 0
4 7 17 0
-4 -7 -17 0
4 16 18 0
-4 -16 -18 0
5 8 17 0
-5 -8 -17 0
5 17 18 0
-5 -17 -18 0
6 9 17 0
-6 -9 -17 0
6 18 0
-6 -18 0
1 7 16 0
-1 -7 -16 0
7 10 17 0
-7 -10 -17 0
7 18 19 0
-7 -18 -19 0
2 8 16 0
-2 -8 -16 0
8 11 17 0
-8 -11 -17 0
3 9 16 0
-3 -9 -16 0
9 12 17 0
-9 -12 -17 0
4 10 16 0
-4 -10 -16 0
10 13 17 0
-10 -13 -17 0
5 11 16 0
-5 -11 -16 0
11 14 17 0
-11 -14 -17 0
6 12 16 0
-6 -12 -16 0
12 15 17 0
-12 -15 -17 0
7 13 16 0
-7 -13 -16 0
13 16 17 0
-13 -16 -17 0
8 14 16 0
-8 -14 -16 0
14 17 0
-14 -17 0
9 15 16 0
-9 -15 -16 0
15 17 18 0
-15 -17 -18 0
1 15 16 0
-1 -15 -16 0
10 16 0
-10 -16 0
16 17 19 0
-16 -17 -19 0
2 15 17 0
-2 -15 -17 0
11 16 17 0
-11 -16 -17 0
12 16 18 0
-12 -16 -18 0
4 15 19 0
-4 -15 -19 0
13 16 19 0
-13 -16 -19 0
