certificates/rado_a9_c150_N19.drat
-17 7 -19 0
-18 -19 0
17 -19 0
-19 0
-17 18 0
18 0
-6 0
17 0
-14 0
-5 0
-15 0
4 0
-16 0
-1 0
-7 0
10 0
13 0
0
